% File represents an instance of a Composite Structure problem to be solved by a CP framework
% Created on 2025-03-26 10:41:19.327
T = 50;
n = 9;
m = 12;
edges = [(1, 2),
(4, 5),
(7, 8),
(2, 3),
(5, 6),
(8, 9),
(4, 1),
(7, 4),
(5, 2),
(8, 5),
(6, 3),
(9, 6)];
counts = [|10, 4, 10, 16,
|10, 4, 10, 10,
|8, 2, 8, 10,
|10, 4, 10, 20,
|10, 4, 10, 16,
|10, 2, 10, 12,
|10, 6, 10, 24,
|10, 6, 10, 18,
|10, 2, 10, 18|];
